Problem:    Pro305
Rows:       47
Columns:    64 (64 integer, 64 binary)
Non-zeros:  320
Status:     INTEGER OPTIMAL
Objective:  nombre_reines = 8 (MAXimum)

   No.   Row name        Activity     Lower bound   Upper bound
------ ------------    ------------- ------------- -------------
     1 nombre_reines
                                   8                             
     2 total_reines_files[1]
                                   1             1             = 
     3 total_reines_files[2]
                                   1             1             = 
     4 total_reines_files[3]
                                   1             1             = 
     5 total_reines_files[4]
                                   1             1             = 
     6 total_reines_files[5]
                                   1             1             = 
     7 total_reines_files[6]
                                   1             1             = 
     8 total_reines_files[7]
                                   1             1             = 
     9 total_reines_files[8]
                                   1             1             = 
    10 total_reines_columnes[1]
                                   1             1             = 
    11 total_reines_columnes[2]
                                   1             1             = 
    12 total_reines_columnes[3]
                                   1             1             = 
    13 total_reines_columnes[4]
                                   1             1             = 
    14 total_reines_columnes[5]
                                   1             1             = 
    15 total_reines_columnes[6]
                                   1             1             = 
    16 total_reines_columnes[7]
                                   1             1             = 
    17 total_reines_columnes[8]
                                   1             1             = 
    18 total_reines_diagonal1[2]
                                   0                           1 
    19 total_reines_diagonal1[3]
                                   1                           1 
    20 total_reines_diagonal1[4]
                                   0                           1 
    21 total_reines_diagonal1[5]
                                   0                           1 
    22 total_reines_diagonal1[6]
                                   1                           1 
    23 total_reines_diagonal1[7]
                                   0                           1 
    24 total_reines_diagonal1[8]
                                   1                           1 
    25 total_reines_diagonal1[9]
                                   1                           1 
    26 total_reines_diagonal1[10]
                                   1                           1 
    27 total_reines_diagonal1[11]
                                   1                           1 
    28 total_reines_diagonal1[12]
                                   1                           1 
    29 total_reines_diagonal1[13]
                                   1                           1 
    30 total_reines_diagonal1[14]
                                   0                           1 
    31 total_reines_diagonal1[15]
                                   0                           1 
    32 total_reines_diagonal1[16]
                                   0                           1 
    33 total_reines_diagonal2[-7]
                                   0                           1 
    34 total_reines_diagonal2[-6]
                                   0                           1 
    35 total_reines_diagonal2[-5]
                                   1                           1 
    36 total_reines_diagonal2[-4]
                                   0                           1 
    37 total_reines_diagonal2[-3]
                                   1                           1 
    38 total_reines_diagonal2[-2]
                                   1                           1 
    39 total_reines_diagonal2[-1]
                                   1                           1 
    40 total_reines_diagonal2[0]
                                   1                           1 
    41 total_reines_diagonal2[1]
                                   1                           1 
    42 total_reines_diagonal2[2]
                                   0                           1 
    43 total_reines_diagonal2[3]
                                   0                           1 
    44 total_reines_diagonal2[4]
                                   1                           1 
    45 total_reines_diagonal2[5]
                                   0                           1 
    46 total_reines_diagonal2[6]
                                   1                           1 
    47 total_reines_diagonal2[7]
                                   0                           1 

   No. Column name       Activity     Lower bound   Upper bound
------ ------------    ------------- ------------- -------------
     1 x[1,1]       *              0             0             1 
     2 x[1,2]       *              1             0             1 
     3 x[1,3]       *              0             0             1 
     4 x[1,4]       *              0             0             1 
     5 x[1,5]       *              0             0             1 
     6 x[1,6]       *              0             0             1 
     7 x[1,7]       *              0             0             1 
     8 x[1,8]       *              0             0             1 
     9 x[2,1]       *              0             0             1 
    10 x[2,2]       *              0             0             1 
    11 x[2,3]       *              0             0             1 
    12 x[2,4]       *              0             0             1 
    13 x[2,5]       *              0             0             1 
    14 x[2,6]       *              0             0             1 
    15 x[2,7]       *              1             0             1 
    16 x[2,8]       *              0             0             1 
    17 x[3,1]       *              0             0             1 
    18 x[3,2]       *              0             0             1 
    19 x[3,3]       *              1             0             1 
    20 x[3,4]       *              0             0             1 
    21 x[3,5]       *              0             0             1 
    22 x[3,6]       *              0             0             1 
    23 x[3,7]       *              0             0             1 
    24 x[3,8]       *              0             0             1 
    25 x[4,1]       *              0             0             1 
    26 x[4,2]       *              0             0             1 
    27 x[4,3]       *              0             0             1 
    28 x[4,4]       *              0             0             1 
    29 x[4,5]       *              0             0             1 
    30 x[4,6]       *              1             0             1 
    31 x[4,7]       *              0             0             1 
    32 x[4,8]       *              0             0             1 
    33 x[5,1]       *              0             0             1 
    34 x[5,2]       *              0             0             1 
    35 x[5,3]       *              0             0             1 
    36 x[5,4]       *              0             0             1 
    37 x[5,5]       *              0             0             1 
    38 x[5,6]       *              0             0             1 
    39 x[5,7]       *              0             0             1 
    40 x[5,8]       *              1             0             1 
    41 x[6,1]       *              0             0             1 
    42 x[6,2]       *              0             0             1 
    43 x[6,3]       *              0             0             1 
    44 x[6,4]       *              0             0             1 
    45 x[6,5]       *              1             0             1 
    46 x[6,6]       *              0             0             1 
    47 x[6,7]       *              0             0             1 
    48 x[6,8]       *              0             0             1 
    49 x[7,1]       *              1             0             1 
    50 x[7,2]       *              0             0             1 
    51 x[7,3]       *              0             0             1 
    52 x[7,4]       *              0             0             1 
    53 x[7,5]       *              0             0             1 
    54 x[7,6]       *              0             0             1 
    55 x[7,7]       *              0             0             1 
    56 x[7,8]       *              0             0             1 
    57 x[8,1]       *              0             0             1 
    58 x[8,2]       *              0             0             1 
    59 x[8,3]       *              0             0             1 
    60 x[8,4]       *              1             0             1 
    61 x[8,5]       *              0             0             1 
    62 x[8,6]       *              0             0             1 
    63 x[8,7]       *              0             0             1 
    64 x[8,8]       *              0             0             1 

Integer feasibility conditions:

KKT.PE: max.abs.err = 0.00e+00 on row 0
        max.rel.err = 0.00e+00 on row 0
        High quality

KKT.PB: max.abs.err = 0.00e+00 on row 0
        max.rel.err = 0.00e+00 on row 0
        High quality

End of output
